Academic license - for non-commercial use only
Gurobi Optimizer version 9.0.3 build v9.0.3rc0 (mac64)
Optimize a model with 96164 rows, 90720 columns and 526770 nonzeros
Model fingerprint: 0xff3bdf10
Variable types: 0 continuous, 90720 integer (90720 binary)
Coefficient statistics:
  Matrix range     [1e+00, 1e+00]
  Objective range  [1e+01, 3e+04]
  Bounds range     [1e+00, 1e+00]
  RHS range        [1e+00, 2e+02]
Presolve added 0 rows and 2470 columns
Presolve removed 30 rows and 0 columns
Presolve time: 1.45s
Presolved: 96134 rows, 93190 columns, 384210 nonzeros
Variable types: 0 continuous, 93190 integer (93190 binary)
Found heuristic solution: objective 287667.00000

Concurrent LP optimizer: dual simplex and barrier
Showing barrier log only...

Root barrier log...

Ordering time: 0.26s

Barrier statistics:
 Dense cols : 360
 AA' NZ     : 2.982e+05
 Factor NZ  : 1.555e+06 (roughly 90 MBytes of memory)
 Factor Ops : 4.160e+08 (less than 1 second per iteration)
 Threads    : 3

                  Objective                Residual
Iter       Primal          Dual         Primal    Dual     Compl     Time
   0   7.33672490e+07 -1.07813754e+08  2.04e+02 3.08e+01  9.28e+03     3s
   1   6.74548970e+05 -1.13516859e+08  1.13e+00 1.42e+02  4.54e+02     3s
   2   3.81087734e+05 -5.01364124e+07  2.51e-01 6.30e+01  1.87e+02     3s
   3   3.42277441e+05 -1.54284375e+07  1.30e-01 3.74e+01  5.78e+01     3s
   4   2.97778720e+05 -9.43669542e+05  5.51e-03 6.93e+00  4.46e+00     3s
   5   2.78976340e+05 -2.63199989e+05  2.75e-03 2.68e+00  1.95e+00     3s
   6   2.65099495e+05  4.52232009e+04  1.98e-03 3.55e+01  7.88e-01     3s
   7   2.55050472e+05  1.13247192e+05  1.54e-03 2.00e+01  5.08e-01     3s
   8   2.48468538e+05  1.62646331e+05  1.25e-03 1.05e+01  3.07e-01     4s
   9   2.44065640e+05  1.78185382e+05  1.08e-03 6.87e+00  2.35e-01     4s
  10   2.38673974e+05  1.88741536e+05  8.69e-04 4.83e+00  1.78e-01     4s
  11   2.36457868e+05  1.93419479e+05  7.89e-04 3.89e+00  1.54e-01     4s
  12   2.30942693e+05  2.01325310e+05  5.95e-04 2.36e+00  1.06e-01     4s
  13   2.26331599e+05  2.06117838e+05  4.32e-04 1.41e+00  7.21e-02     4s
  14   2.24350492e+05  2.07335678e+05  3.68e-04 1.18e+00  6.07e-02     4s
  15   2.22303541e+05  2.09499701e+05  2.97e-04 7.83e-01  4.57e-02     4s
  16   2.20565622e+05  2.10603977e+05  2.36e-04 5.81e-01  3.55e-02     4s
  17   2.18567820e+05  2.11440138e+05  1.61e-04 4.36e-01  2.54e-02     4s
  18   2.17793106e+05  2.11847932e+05  1.32e-04 3.68e-01  2.12e-02     4s
  19   2.16756030e+05  2.12534726e+05  9.38e-05 2.54e-01  1.51e-02     5s
  20   2.16198571e+05  2.12915343e+05  7.34e-05 1.92e-01  1.17e-02     5s
  21   2.15733276e+05  2.13246112e+05  5.70e-05 1.40e-01  8.87e-03     5s
  22   2.15411732e+05  2.13529044e+05  4.48e-05 9.83e-02  6.71e-03     5s
  23   2.15174536e+05  2.13735843e+05  3.62e-05 6.72e-02  5.13e-03     5s
  24   2.15008741e+05  2.13851570e+05  2.99e-05 4.99e-02  4.12e-03     5s
  25   2.14885253e+05  2.13934584e+05  2.55e-05 3.75e-02  3.39e-03     5s
  26   2.14775981e+05  2.13977324e+05  2.20e-05 3.12e-02  2.84e-03     5s
  27   2.14738510e+05  2.14029693e+05  2.05e-05 2.34e-02  2.52e-03     5s
  28   2.14660708e+05  2.14071405e+05  1.77e-05 1.72e-02  2.10e-03     5s
  29   2.14552109e+05  2.14084406e+05  1.39e-05 1.49e-02  1.66e-03     5s
  30   2.14468739e+05  2.14100844e+05  1.09e-05 1.24e-02  1.31e-03     6s
  31   2.14400777e+05  2.14114903e+05  8.20e-06 1.03e-02  1.02e-03     6s
  32   2.14368999e+05  2.14123264e+05  6.97e-06 9.11e-03  8.75e-04     6s
  33   2.14339445e+05  2.14133653e+05  5.77e-06 7.74e-03  7.33e-04     6s
  34   2.14322198e+05  2.14150091e+05  5.17e-06 5.67e-03  6.12e-04     6s
  35   2.14298796e+05  2.14158472e+05  4.26e-06 4.44e-03  4.99e-04     6s
  36   2.14269792e+05  2.14163200e+05  3.22e-06 3.74e-03  3.79e-04     6s
  37   2.14257352e+05  2.14168787e+05  2.72e-06 2.94e-03  3.15e-04     6s
  38   2.14245993e+05  2.14173437e+05  2.23e-06 2.35e-03  2.58e-04     6s
  39   2.14240266e+05  2.14176773e+05  2.02e-06 1.89e-03  2.26e-04     6s
  40   2.14232149e+05  2.14179763e+05  1.67e-06 1.51e-03  1.86e-04     6s
  41   2.14228483e+05  2.14181546e+05  1.52e-06 1.29e-03  1.67e-04     7s
  42   2.14225723e+05  2.14181795e+05  1.41e-06 1.26e-03  1.56e-04     7s
  43   2.14219795e+05  2.14182979e+05  1.16e-06 1.12e-03  1.31e-04     7s
  44   2.14214943e+05  2.14184029e+05  9.54e-07 9.74e-04  1.10e-04     7s
  45   2.14211158e+05  2.14184938e+05  8.10e-07 8.53e-04  9.33e-05     7s
  46   2.14207153e+05  2.14187154e+05  6.38e-07 5.26e-04  7.11e-05     7s
  47   2.14204668e+05  2.14187475e+05  5.39e-07 4.86e-04  6.12e-05     7s
  48   2.14202626e+05  2.14188050e+05  4.50e-07 4.24e-04  5.19e-05     7s
  49   2.14199755e+05  2.14188660e+05  3.34e-07 3.51e-04  3.95e-05     7s
  50   2.14199386e+05  2.14189014e+05  3.19e-07 3.14e-04  3.69e-05     7s
  51   2.14198101e+05  2.14189543e+05  2.66e-07 2.58e-04  3.04e-05     7s
  52   2.14196836e+05  2.14189844e+05  2.12e-07 2.23e-04  2.49e-05     7s
  53   2.14196126e+05  2.14190087e+05  1.80e-07 1.97e-04  2.15e-05     8s
  54   2.14195253e+05  2.14190426e+05  1.42e-07 1.58e-04  1.72e-05     8s
  55   2.14194827e+05  2.14190620e+05  1.24e-07 1.37e-04  1.50e-05     8s
  56   2.14194013e+05  2.14191142e+05  8.88e-08 7.89e-05  1.02e-05     8s
  57   2.14193850e+05  2.14191333e+05  8.26e-08 5.78e-05  8.95e-06     8s
  58   2.14193410e+05  2.14191363e+05  6.36e-08 5.47e-05  7.28e-06     8s
  59   2.14192848e+05  2.14191597e+05  3.89e-08 3.21e-05  4.45e-06     8s
  60   2.14192588e+05  2.14191780e+05  2.76e-08 1.33e-05  2.87e-06     8s
  61   2.14192430e+05  2.14191825e+05  2.09e-08 9.45e-06  2.15e-06     8s
  62   2.14192168e+05  2.14191917e+05  9.69e-09 9.30e-07  8.91e-07     8s
  63   2.14192114e+05  2.14191926e+05  7.48e-09 3.33e-07  6.68e-07     8s
  64   2.14192092e+05  2.14191928e+05  6.61e-09 2.85e-07  5.85e-07     8s
  65   2.14192060e+05  2.14191928e+05  5.33e-09 2.49e-07  4.68e-07     9s
  66   2.14192036e+05  2.14191929e+05  4.28e-09 2.41e-07  3.82e-07     9s
  67   2.14191956e+05  2.14191931e+05  7.94e-10 1.73e-07  8.73e-08     9s
  68   2.14191938e+05  2.14191935e+05  2.14e-11 5.35e-08  8.23e-09     9s
  69   2.14191938e+05  2.14191935e+05  5.01e-10 5.14e-08  7.91e-09     9s
  70   2.14191938e+05  2.14191935e+05  9.60e-10 5.14e-08  7.91e-09     9s
  71   2.14191938e+05  2.14191935e+05  9.60e-10 5.14e-08  7.91e-09     9s

Barrier solved model in 71 iterations and 9.15 seconds
Optimal objective 2.14191938e+05


Root crossover log...

   24541 DPushes remaining with DInf 0.0000000e+00                 9s
       0 DPushes remaining with DInf 0.0000000e+00                10s

     737 PPushes remaining with PInf 0.0000000e+00                10s
       0 PPushes remaining with PInf 0.0000000e+00                10s

  Push phase complete: Pinf 0.0000000e+00, Dinf 2.2972779e-10     10s


Root simplex log...

Iteration    Objective       Primal Inf.    Dual Inf.      Time
    4338    2.1419194e+05   0.000000e+00   0.000000e+00     10s

Solved with barrier

Root relaxation: objective 2.141919e+05, 4338 iterations, 7.66 seconds
Total elapsed time = 10.09s

    Nodes    |    Current Node    |     Objective Bounds      |     Work
 Expl Unexpl |  Obj  Depth IntInf | Incumbent    BestBd   Gap | It/Node Time

     0     0 214191.937    0 10218 287667.000 214191.937  25.5%     -   10s
H    0     0                    239530.00000 214191.937  10.6%     -   15s
     0     0 214194.075    0 10209 239530.000 214194.075  10.6%     -   19s
     0     0 214194.838    0 10355 239530.000 214194.838  10.6%     -   21s
     0     0 214195.023    0 10361 239530.000 214195.023  10.6%     -   21s
     0     0 214196.491    0 10372 239530.000 214196.491  10.6%     -   26s
     0     0 214196.767    0 10369 239530.000 214196.767  10.6%     -   27s
     0     0 214196.862    0 10371 239530.000 214196.862  10.6%     -   28s
     0     0 214196.862    0 10355 239530.000 214196.862  10.6%     -   31s
H    0     2                    235495.00000 214196.862  9.04%     -   50s
     0     2 214196.862    0 10355 235495.000 214196.862  9.04%     -   50s
     1     4 214293.891    1 10292 235495.000 214196.962  9.04%  5796   77s
     3     8 214331.800    2 10647 235495.000 214293.961  9.00% 11271  141s
     7    12 214393.263    3 10709 235495.000 214331.991  8.99% 13313  163s
    11    16 215463.818    3 9684 235495.000 214393.295  8.96% 12236  193s
    15    20 214480.402    4 10729 235495.000 214393.326  8.96% 10384  217s
H   18    20                    223641.00000 214393.326  4.14% 10182  217s
    19    24 214545.759    5 10510 223641.000 214393.326  4.14% 10185  236s
    23    30 214601.446    6 10801 223641.000 214393.326  4.14% 10117  273s
H   28    30                    216863.00000 214393.326  1.14%  8650  273s
H   29    34                    216860.00000 214393.326  1.14%  8383  291s
H   30    34                    216857.00000 214393.326  1.14%  8167  291s
H   31    34                    216850.00000 214393.326  1.13%  8163  291s
H   32    34                    216839.00000 214393.326  1.13%  8029  291s

Cutting planes:
  Gomory: 6

Explored 33 nodes (268673 simplex iterations) in 300.07 seconds
Thread count was 8 (of 8 available processors)

Solution count 9: 216839 216850 216857 ... 287667

Time limit reached
Best objective 2.168390000000e+05, best bound 2.143940000000e+05, gap 1.1276%

User-callback calls 116557, time in user-callback 0.59 sec
Solution written to /Users/mdeboute/Desktop/Etudes/Master/M2/S9/GOPP/Projet/multi-period-flp/solution/instSingle_I30_J250_T12_0_result.txt
